9475.53,64.19,79.62
9496.53,64.05,79.45
10213.4,59.55,73.87
10373.97,58.63,72.73
10276.97,59.18,73.42
10047.17,60.54,75.09
9790.83,62.12,77.06
8939.39,68.04,84.4
9887.73,61.51,76.31
10001.75,60.81,75.44
10013.58,60.74,75.35
10085.76,60.3,74.81
8869.94,68.57,85.06
9182.86,66.23,82.16
10008.12,60.77,75.39
9823.08,61.92,76.81
9448.12,64.37,79.86
9835.93,61.84,76.71
9397.25,64.72,80.29
9763.22,62.3,77.28
